
Gurobi 9.0.1 (linux64, C++) logging started Mon Jun  1 17:03:37 2020

Gurobi Optimizer version 9.0.1 build v9.0.1rc0 (linux64)
Optimize a model with 36 rows, 25 columns and 80 nonzeros
Model fingerprint: 0xe1f53026
Variable types: 0 continuous, 25 integer (25 binary)
Coefficient statistics:
  Matrix range     [1e+00, 1e+00]
  Objective range  [1e+00, 1e+00]
  Bounds range     [1e+00, 1e+00]
  RHS range        [1e+00, 1e+00]
Found heuristic solution: objective 13.0000000
Found heuristic solution: objective 8.0000000
Presolve removed 36 rows and 25 columns
Presolve time: 0.00s
Presolve: All rows and columns removed

Explored 0 nodes (0 simplex iterations) in 0.01 seconds
Thread count was 1 (of 88 available processors)

Solution count 2: 8 

Optimal solution found (tolerance 1.00e-04)
Best objective 8.000000000000e+00, best bound 8.000000000000e+00, gap 0.0000%

Gurobi 9.0.1 (linux64, C++) logging started Mon Jun  1 17:06:37 2020

Gurobi Optimizer version 9.0.1 build v9.0.1rc0 (linux64)
Optimize a model with 36 rows, 25 columns and 80 nonzeros
Model fingerprint: 0xe1f53026
Variable types: 0 continuous, 25 integer (25 binary)
Coefficient statistics:
  Matrix range     [1e+00, 1e+00]
  Objective range  [1e+00, 1e+00]
  Bounds range     [1e+00, 1e+00]
  RHS range        [1e+00, 1e+00]
Found heuristic solution: objective 13.0000000
Found heuristic solution: objective 8.0000000
Presolve removed 36 rows and 25 columns
Presolve time: 0.00s
Presolve: All rows and columns removed

Explored 0 nodes (0 simplex iterations) in 0.00 seconds
Thread count was 1 (of 88 available processors)

Solution count 2: 8 

Optimal solution found (tolerance 1.00e-04)
Best objective 8.000000000000e+00, best bound 8.000000000000e+00, gap 0.0000%

Gurobi 9.0.1 (linux64, C++) logging started Mon Jun  1 17:38:45 2020

Gurobi Optimizer version 9.0.1 build v9.0.1rc0 (linux64)
Optimize a model with 28 rows, 23 columns and 64 nonzeros
Model fingerprint: 0x0a0db7c6
Variable types: 0 continuous, 23 integer (23 binary)
Coefficient statistics:
  Matrix range     [1e+00, 1e+00]
  Objective range  [1e+00, 1e+00]
  Bounds range     [1e+00, 1e+00]
  RHS range        [1e+00, 1e+00]
Found heuristic solution: objective 10.0000000
Found heuristic solution: objective 6.0000000
Presolve removed 28 rows and 23 columns
Presolve time: 0.00s
Presolve: All rows and columns removed

Explored 0 nodes (0 simplex iterations) in 0.00 seconds
Thread count was 1 (of 88 available processors)

Solution count 3: 4 

Optimal solution found (tolerance 1.00e-04)
Best objective 4.000000000000e+00, best bound 4.000000000000e+00, gap 0.0000%

Gurobi 9.0.1 (linux64, C++) logging started Mon Jun  1 17:41:27 2020

Gurobi Optimizer version 9.0.1 build v9.0.1rc0 (linux64)
Optimize a model with 28 rows, 23 columns and 64 nonzeros
Model fingerprint: 0x0a0db7c6
Variable types: 0 continuous, 23 integer (23 binary)
Coefficient statistics:
  Matrix range     [1e+00, 1e+00]
  Objective range  [1e+00, 1e+00]
  Bounds range     [1e+00, 1e+00]
  RHS range        [1e+00, 1e+00]
Found heuristic solution: objective 10.0000000
Found heuristic solution: objective 6.0000000
Presolve removed 28 rows and 23 columns
Presolve time: 0.00s
Presolve: All rows and columns removed

Explored 0 nodes (0 simplex iterations) in 0.00 seconds
Thread count was 1 (of 88 available processors)

Solution count 3: 4 

Optimal solution found (tolerance 1.00e-04)
Best objective 4.000000000000e+00, best bound 4.000000000000e+00, gap 0.0000%

Gurobi 9.0.1 (linux64, C++) logging started Mon Jun  1 17:42:15 2020

Gurobi Optimizer version 9.0.1 build v9.0.1rc0 (linux64)
Optimize a model with 28 rows, 23 columns and 64 nonzeros
Model fingerprint: 0x0a0db7c6
Variable types: 0 continuous, 23 integer (23 binary)
Coefficient statistics:
  Matrix range     [1e+00, 1e+00]
  Objective range  [1e+00, 1e+00]
  Bounds range     [1e+00, 1e+00]
  RHS range        [1e+00, 1e+00]
Found heuristic solution: objective 10.0000000
Found heuristic solution: objective 6.0000000
Presolve removed 28 rows and 23 columns
Presolve time: 0.00s
Presolve: All rows and columns removed

Explored 0 nodes (0 simplex iterations) in 0.00 seconds
Thread count was 1 (of 88 available processors)

Solution count 3: 4 

Optimal solution found (tolerance 1.00e-04)
Best objective 4.000000000000e+00, best bound 4.000000000000e+00, gap 0.0000%

Gurobi 9.0.1 (linux64, C++) logging started Mon Jun  1 17:42:49 2020

Gurobi Optimizer version 9.0.1 build v9.0.1rc0 (linux64)
Optimize a model with 28 rows, 23 columns and 64 nonzeros
Model fingerprint: 0x0a0db7c6
Variable types: 0 continuous, 23 integer (23 binary)
Coefficient statistics:
  Matrix range     [1e+00, 1e+00]
  Objective range  [1e+00, 1e+00]
  Bounds range     [1e+00, 1e+00]
  RHS range        [1e+00, 1e+00]
Found heuristic solution: objective 10.0000000
Found heuristic solution: objective 6.0000000
Presolve removed 28 rows and 23 columns
Presolve time: 0.00s
Presolve: All rows and columns removed

Explored 0 nodes (0 simplex iterations) in 0.00 seconds
Thread count was 1 (of 88 available processors)

Solution count 3: 4 

Optimal solution found (tolerance 1.00e-04)
Best objective 4.000000000000e+00, best bound 4.000000000000e+00, gap 0.0000%

Gurobi 9.0.1 (linux64, C++) logging started Mon Jun  1 17:43:23 2020

Gurobi Optimizer version 9.0.1 build v9.0.1rc0 (linux64)
Optimize a model with 28 rows, 23 columns and 64 nonzeros
Model fingerprint: 0x0a0db7c6
Variable types: 0 continuous, 23 integer (23 binary)
Coefficient statistics:
  Matrix range     [1e+00, 1e+00]
  Objective range  [1e+00, 1e+00]
  Bounds range     [1e+00, 1e+00]
  RHS range        [1e+00, 1e+00]
Found heuristic solution: objective 10.0000000
Found heuristic solution: objective 6.0000000
Presolve removed 28 rows and 23 columns
Presolve time: 0.00s
Presolve: All rows and columns removed

Explored 0 nodes (0 simplex iterations) in 0.00 seconds
Thread count was 1 (of 88 available processors)

Solution count 3: 4 

Optimal solution found (tolerance 1.00e-04)
Best objective 4.000000000000e+00, best bound 4.000000000000e+00, gap 0.0000%

Gurobi 9.0.1 (linux64, C++) logging started Mon Jun  1 17:52:41 2020

Gurobi Optimizer version 9.0.1 build v9.0.1rc0 (linux64)
Optimize a model with 28 rows, 23 columns and 64 nonzeros
Model fingerprint: 0x0a0db7c6
Variable types: 0 continuous, 23 integer (23 binary)
Coefficient statistics:
  Matrix range     [1e+00, 1e+00]
  Objective range  [1e+00, 1e+00]
  Bounds range     [1e+00, 1e+00]
  RHS range        [1e+00, 1e+00]
Found heuristic solution: objective 10.0000000
Found heuristic solution: objective 6.0000000
Presolve removed 28 rows and 23 columns
Presolve time: 0.00s
Presolve: All rows and columns removed

Explored 0 nodes (0 simplex iterations) in 0.00 seconds
Thread count was 1 (of 88 available processors)

Solution count 3: 4 

Optimal solution found (tolerance 1.00e-04)
Best objective 4.000000000000e+00, best bound 4.000000000000e+00, gap 0.0000%

Gurobi 9.0.1 (linux64, C++) logging started Mon Jun  1 17:56:07 2020

Gurobi Optimizer version 9.0.1 build v9.0.1rc0 (linux64)
Optimize a model with 28 rows, 23 columns and 64 nonzeros
Model fingerprint: 0x0a0db7c6
Variable types: 0 continuous, 23 integer (23 binary)
Coefficient statistics:
  Matrix range     [1e+00, 1e+00]
  Objective range  [1e+00, 1e+00]
  Bounds range     [1e+00, 1e+00]
  RHS range        [1e+00, 1e+00]
Found heuristic solution: objective 10.0000000
Found heuristic solution: objective 6.0000000
Presolve removed 28 rows and 23 columns
Presolve time: 0.00s
Presolve: All rows and columns removed

Explored 0 nodes (0 simplex iterations) in 0.00 seconds
Thread count was 1 (of 88 available processors)

Solution count 3: 4 

Optimal solution found (tolerance 1.00e-04)
Best objective 4.000000000000e+00, best bound 4.000000000000e+00, gap 0.0000%

Gurobi 9.0.1 (linux64, C++) logging started Mon Jun  1 18:20:37 2020

Gurobi Optimizer version 9.0.1 build v9.0.1rc0 (linux64)
Optimize a model with 28 rows, 23 columns and 64 nonzeros
Model fingerprint: 0x0a0db7c6
Variable types: 0 continuous, 23 integer (23 binary)
Coefficient statistics:
  Matrix range     [1e+00, 1e+00]
  Objective range  [1e+00, 1e+00]
  Bounds range     [1e+00, 1e+00]
  RHS range        [1e+00, 1e+00]
Found heuristic solution: objective 10.0000000
Found heuristic solution: objective 6.0000000
Presolve removed 28 rows and 23 columns
Presolve time: 0.00s
Presolve: All rows and columns removed

Explored 0 nodes (0 simplex iterations) in 0.00 seconds
Thread count was 1 (of 88 available processors)

Solution count 3: 4 

Optimal solution found (tolerance 1.00e-04)
Best objective 4.000000000000e+00, best bound 4.000000000000e+00, gap 0.0000%

Gurobi 9.0.1 (linux64, C++) logging started Mon Jun  1 18:20:57 2020

Gurobi Optimizer version 9.0.1 build v9.0.1rc0 (linux64)
Optimize a model with 28 rows, 23 columns and 64 nonzeros
Model fingerprint: 0x0a0db7c6
Variable types: 0 continuous, 23 integer (23 binary)
Coefficient statistics:
  Matrix range     [1e+00, 1e+00]
  Objective range  [1e+00, 1e+00]
  Bounds range     [1e+00, 1e+00]
  RHS range        [1e+00, 1e+00]
Found heuristic solution: objective 10.0000000
Found heuristic solution: objective 6.0000000
Presolve removed 28 rows and 23 columns
Presolve time: 0.00s
Presolve: All rows and columns removed

Explored 0 nodes (0 simplex iterations) in 0.00 seconds
Thread count was 1 (of 88 available processors)

Solution count 3: 4 

Optimal solution found (tolerance 1.00e-04)
Best objective 4.000000000000e+00, best bound 4.000000000000e+00, gap 0.0000%

Gurobi 9.0.1 (linux64, C++) logging started Mon Jun  1 18:26:28 2020

Gurobi Optimizer version 9.0.1 build v9.0.1rc0 (linux64)
Optimize a model with 28 rows, 23 columns and 64 nonzeros
Model fingerprint: 0x0a0db7c6
Variable types: 0 continuous, 23 integer (23 binary)
Coefficient statistics:
  Matrix range     [1e+00, 1e+00]
  Objective range  [1e+00, 1e+00]
  Bounds range     [1e+00, 1e+00]
  RHS range        [1e+00, 1e+00]
Found heuristic solution: objective 10.0000000
Found heuristic solution: objective 6.0000000
Presolve removed 28 rows and 23 columns
Presolve time: 0.00s
Presolve: All rows and columns removed

Explored 0 nodes (0 simplex iterations) in 0.00 seconds
Thread count was 1 (of 88 available processors)

Solution count 3: 4 

Optimal solution found (tolerance 1.00e-04)
Best objective 4.000000000000e+00, best bound 4.000000000000e+00, gap 0.0000%

Gurobi 9.0.1 (linux64, C++) logging started Mon Jun  1 18:27:03 2020

Gurobi Optimizer version 9.0.1 build v9.0.1rc0 (linux64)
Optimize a model with 28 rows, 23 columns and 64 nonzeros
Model fingerprint: 0x0a0db7c6
Variable types: 0 continuous, 23 integer (23 binary)
Coefficient statistics:
  Matrix range     [1e+00, 1e+00]
  Objective range  [1e+00, 1e+00]
  Bounds range     [1e+00, 1e+00]
  RHS range        [1e+00, 1e+00]
Found heuristic solution: objective 10.0000000
Found heuristic solution: objective 6.0000000
Presolve removed 28 rows and 23 columns
Presolve time: 0.00s
Presolve: All rows and columns removed

Explored 0 nodes (0 simplex iterations) in 0.00 seconds
Thread count was 1 (of 88 available processors)

Solution count 3: 4 

Optimal solution found (tolerance 1.00e-04)
Best objective 4.000000000000e+00, best bound 4.000000000000e+00, gap 0.0000%

Gurobi 9.0.1 (linux64, C++) logging started Mon Jun  1 18:27:22 2020

Gurobi Optimizer version 9.0.1 build v9.0.1rc0 (linux64)
Optimize a model with 28 rows, 23 columns and 64 nonzeros
Model fingerprint: 0x0a0db7c6
Variable types: 0 continuous, 23 integer (23 binary)
Coefficient statistics:
  Matrix range     [1e+00, 1e+00]
  Objective range  [1e+00, 1e+00]
  Bounds range     [1e+00, 1e+00]
  RHS range        [1e+00, 1e+00]
Found heuristic solution: objective 10.0000000
Found heuristic solution: objective 6.0000000
Presolve removed 28 rows and 23 columns
Presolve time: 0.00s
Presolve: All rows and columns removed

Explored 0 nodes (0 simplex iterations) in 0.00 seconds
Thread count was 1 (of 88 available processors)

Solution count 3: 4 

Optimal solution found (tolerance 1.00e-04)
Best objective 4.000000000000e+00, best bound 4.000000000000e+00, gap 0.0000%

Gurobi 9.0.1 (linux64, C++) logging started Mon Jun  1 18:40:03 2020

Gurobi Optimizer version 9.0.1 build v9.0.1rc0 (linux64)
Optimize a model with 12752 rows, 5293 columns and 29960 nonzeros
Model fingerprint: 0x039f6faf
Variable types: 0 continuous, 5293 integer (5293 binary)
Coefficient statistics:
  Matrix range     [1e+00, 1e+00]
  Objective range  [1e+00, 1e+00]
  Bounds range     [1e+00, 1e+00]
  RHS range        [1e+00, 1e+00]
Found heuristic solution: objective 1531.0000000
Found heuristic solution: objective 1209.0000000
Presolve removed 12735 rows and 5283 columns
Presolve time: 0.05s
Presolved: 17 rows, 10 columns, 39 nonzeros
Found heuristic solution: objective 1112.0000000
Variable types: 0 continuous, 10 integer (10 binary)

Explored 0 nodes (0 simplex iterations) in 0.06 seconds
Thread count was 32 (of 88 available processors)

Solution count 3: 1112 1209 1531 

Optimal solution found (tolerance 1.00e-04)
Best objective 1.112000000000e+03, best bound 1.112000000000e+03, gap 0.0000%

Gurobi 9.0.1 (linux64, C++) logging started Mon Jun  1 18:40:18 2020

Gurobi Optimizer version 9.0.1 build v9.0.1rc0 (linux64)
Optimize a model with 12752 rows, 5293 columns and 29960 nonzeros
Model fingerprint: 0x5be24f8a
Variable types: 0 continuous, 5293 integer (5293 binary)
Coefficient statistics:
  Matrix range     [1e+00, 1e+00]
  Objective range  [1e+00, 1e+00]
  Bounds range     [1e+00, 1e+00]
  RHS range        [1e+00, 1e+00]
Found heuristic solution: objective 1531.0000000
Found heuristic solution: objective 1202.0000000
Presolve removed 12735 rows and 5283 columns
Presolve time: 0.04s
Presolved: 17 rows, 10 columns, 39 nonzeros
Found heuristic solution: objective 1112.0000000
Variable types: 0 continuous, 10 integer (10 binary)

Explored 0 nodes (0 simplex iterations) in 0.05 seconds
Thread count was 32 (of 88 available processors)

Solution count 3: 1112 1202 1531 

Optimal solution found (tolerance 1.00e-04)
Best objective 1.112000000000e+03, best bound 1.112000000000e+03, gap 0.0000%

Gurobi 9.0.1 (linux64, C++) logging started Tue Jun  2 12:28:36 2020

Gurobi Optimizer version 9.0.1 build v9.0.1rc0 (linux64)
Optimize a model with 43 rows, 43 columns and 104 nonzeros
Model fingerprint: 0x9d9f7cba
Variable types: 0 continuous, 43 integer (43 binary)
Coefficient statistics:
  Matrix range     [1e+00, 1e+00]
  Objective range  [1e+00, 1e+00]
  Bounds range     [1e+00, 1e+00]
  RHS range        [1e+00, 1e+00]
Found heuristic solution: objective 17.0000000
Found heuristic solution: objective 6.0000000
Presolve removed 43 rows and 43 columns
Presolve time: 0.00s
Presolve: All rows and columns removed

Explored 0 nodes (0 simplex iterations) in 0.00 seconds
Thread count was 1 (of 88 available processors)

Solution count 3: 4 

Optimal solution found (tolerance 1.00e-04)
Best objective 4.000000000000e+00, best bound 4.000000000000e+00, gap 0.0000%

Gurobi 9.0.1 (linux64, C++) logging started Tue Jun  2 12:28:43 2020

Gurobi Optimizer version 9.0.1 build v9.0.1rc0 (linux64)
Optimize a model with 43 rows, 43 columns and 104 nonzeros
Model fingerprint: 0x9d9f7cba
Variable types: 0 continuous, 43 integer (43 binary)
Coefficient statistics:
  Matrix range     [1e+00, 1e+00]
  Objective range  [1e+00, 1e+00]
  Bounds range     [1e+00, 1e+00]
  RHS range        [1e+00, 1e+00]
Found heuristic solution: objective 17.0000000
Found heuristic solution: objective 6.0000000
Presolve removed 43 rows and 43 columns
Presolve time: 0.00s
Presolve: All rows and columns removed

Explored 0 nodes (0 simplex iterations) in 0.00 seconds
Thread count was 1 (of 88 available processors)

Solution count 3: 4 

Optimal solution found (tolerance 1.00e-04)
Best objective 4.000000000000e+00, best bound 4.000000000000e+00, gap 0.0000%

Gurobi 9.0.1 (linux64, C++) logging started Tue Jun  2 12:29:20 2020

Gurobi Optimizer version 9.0.1 build v9.0.1rc0 (linux64)
Optimize a model with 12752 rows, 5293 columns and 29960 nonzeros
Model fingerprint: 0x039f6faf
Variable types: 0 continuous, 5293 integer (5293 binary)
Coefficient statistics:
  Matrix range     [1e+00, 1e+00]
  Objective range  [1e+00, 1e+00]
  Bounds range     [1e+00, 1e+00]
  RHS range        [1e+00, 1e+00]
Found heuristic solution: objective 1531.0000000
Found heuristic solution: objective 1209.0000000
Presolve removed 12735 rows and 5283 columns
Presolve time: 0.06s
Presolved: 17 rows, 10 columns, 39 nonzeros
Found heuristic solution: objective 1112.0000000
Variable types: 0 continuous, 10 integer (10 binary)

Explored 0 nodes (0 simplex iterations) in 0.07 seconds
Thread count was 32 (of 88 available processors)

Solution count 3: 1112 1209 1531 

Optimal solution found (tolerance 1.00e-04)
Best objective 1.112000000000e+03, best bound 1.112000000000e+03, gap 0.0000%

Gurobi 9.0.1 (linux64, C++) logging started Tue Jun  2 12:29:55 2020

Gurobi Optimizer version 9.0.1 build v9.0.1rc0 (linux64)
Optimize a model with 30 rows, 43 columns and 65 nonzeros
Model fingerprint: 0x9c3310c8
Variable types: 0 continuous, 43 integer (43 binary)
Coefficient statistics:
  Matrix range     [1e+00, 1e+00]
  Objective range  [1e+00, 1e+00]
  Bounds range     [1e+00, 1e+00]
  RHS range        [1e+00, 1e+00]
Found heuristic solution: objective 17.0000000
Found heuristic solution: objective 7.0000000
Presolve removed 30 rows and 43 columns
Presolve time: 0.00s
Presolve: All rows and columns removed

Explored 0 nodes (0 simplex iterations) in 0.00 seconds
Thread count was 1 (of 88 available processors)

Solution count 3: 4 

Optimal solution found (tolerance 1.00e-04)
Best objective 4.000000000000e+00, best bound 4.000000000000e+00, gap 0.0000%

Gurobi 9.0.1 (linux64, C++) logging started Tue Jun  2 12:30:00 2020

Gurobi Optimizer version 9.0.1 build v9.0.1rc0 (linux64)
Optimize a model with 9007 rows, 5293 columns and 18725 nonzeros
Model fingerprint: 0xef79ac8d
Variable types: 0 continuous, 5293 integer (5293 binary)
Coefficient statistics:
  Matrix range     [1e+00, 1e+00]
  Objective range  [1e+00, 1e+00]
  Bounds range     [1e+00, 1e+00]
  RHS range        [1e+00, 1e+00]
Found heuristic solution: objective 1531.0000000
Found heuristic solution: objective 1251.0000000
Presolve removed 9007 rows and 5293 columns
Presolve time: 0.01s
Presolve: All rows and columns removed

Explored 0 nodes (0 simplex iterations) in 0.02 seconds
Thread count was 1 (of 88 available processors)

Solution count 3: 1112 

Optimal solution found (tolerance 1.00e-04)
Best objective 1.112000000000e+03, best bound 1.112000000000e+03, gap 0.0000%

Gurobi 9.0.1 (linux64, C++) logging started Wed Jun  3 16:10:39 2020

Gurobi Optimizer version 9.0.1 build v9.0.1rc0 (linux64)
Optimize a model with 1695 rows, 2231 columns and 3415 nonzeros
Model fingerprint: 0x59d47b8b
Variable types: 0 continuous, 2231 integer (2231 binary)
Coefficient statistics:
  Matrix range     [1e+00, 1e+00]
  Objective range  [1e+00, 1e+00]
  Bounds range     [1e+00, 1e+00]
  RHS range        [1e+00, 1e+00]
Found heuristic solution: objective 927.0000000
Found heuristic solution: objective 522.0000000
Presolve removed 1695 rows and 2231 columns
Presolve time: 0.00s
Presolve: All rows and columns removed

Explored 0 nodes (0 simplex iterations) in 0.01 seconds
Thread count was 1 (of 88 available processors)

Solution count 3: 457 

Optimal solution found (tolerance 1.00e-04)
Best objective 4.570000000000e+02, best bound 4.570000000000e+02, gap 0.0000%
